#NAME: SHUBHAM SHARMA
#ROLL NO: 18i190002
#COURSE: MSC PHD OR
param N := 7; #defining the value of patameter N
param b := 30; #defining the value of b

param c:=  #giving the values to c.  
1 23
2 12
3 -6
4 3.4
5 8.4
6 40
7 11;

param lb := #giving the values to lb.
1 1
2 1
3 0
4 0
5 7
6 0
7 2;

param ub := #giving the values to ub.
1 4
2 3
3 2
4 2
5 30
6 30
7 13;
